certificates/rado_a15_c274_N43.cnf
c Rad2 upper bound instance: x1 + 15*x2 - x3 = 274, interval [1,43]
p cnf 43 246
1 12 19 0
-1 -12 -19 0
1 20 27 0
-1 -20 -27 0
1 21 42 0
-1 -21 -42 0
2 13 19 0
-2 -13 -19 0
2 20 28 0
-2 -20 -28 0
2 21 43 0
-2 -21 -43 0
3 14 19 0
-3 -14 -19 0
3 20 29 0
-3 -20 -29 0
4 15 19 0
-4 -15 -19 0
4 20 30 0
-4 -20 -30 0
1 5 18 0
-1 -5 -18 0
5 16 19 0
-5 -16 -19 0
5 20 31 0
-5 -20 -31 0
2 6 18 0
-2 -6 -18 0
6 17 19 0
-6 -17 -19 0
6 20 32 0
-6 -20 -32 0
3 7 18 0
-3 -7 -18 0
7 18 19 0
-7 -18 -19 0
7 20 33 0
-7 -20 -33 0
4 8 18 0
-4 -8 -18 0
8 19 0
-8 -19 0
8 20 34 0
-8 -20 -34 0
5 9 18 0
-5 -9 -18 0
9 19 20 0
-9 -19 -20 0
9 20 35 0
-9 -20 -35 0
6 10 18 0
-6 -10 -18 0
10 19 21 0
-10 -19 -21 0
10 20 36 0
-10 -20 -36 0
7 11 18 0
-7 -11 -18 0
11 19 22 0
-11 -19 -22 0
11 20 37 0
-11 -20 -37 0
8 12 18 0
-8 -12 -18 0
12 19 23 0
-12 -19 -23 0
12 20 38 0
-12 -20 -38 0
9 13 18 0
-9 -13 -18 0
13 19 24 0
-13 -19 -24 0
13 20 39 0
-13 -20 -39 0
10 14 18 0
-10 -14 -18 0
14 19 25 0
-14 -19 -25 0
14 20 40 0
-14 -20 -40 0
11 15 18 0
-11 -15 -18 0
15 19 26 0
-15 -19 -26 0
15 20 41 0
-15 -20 -41 0
12 16 18 0
-12 -16 -18 0
16 19 27 0
-16 -19 -27 0
16 20 42 0
-16 -20 -42 0
13 17 18 0
-13 -17 -18 0
17 19 28 0
-17 -19 -28 0
17 20 43 0
-17 -20 -43 0
14 18 0
-14 -18 0
18 19 29 0
-18 -19 -29 0
15 18 19 0
-15 -18 -19 0
19 30 0
-19 -30 0
1 17 20 0
-1 -17 -20 0
16 18 20 0
-16 -18 -20 0
19 20 31 0
-19 -20 -31 0
2 17 21 0
-2 -17 -21 0
17 18 21 0
-17 -18 -21 0
19 21 32 0
-19 -21 -32 0
3 17 22 0
-3 -17 -22 0
18 22 0
-18 -22 0
19 22 33 0
-19 -22 -33 0
4 17 23 0
-4 -17 -23 0
18 19 23 0
-18 -19 -23 0
19 23 34 0
-19 -23 -34 0
5 17 24 0
-5 -17 -24 0
18 20 24 0
-18 -20 -24 0
19 24 35 0
-19 -24 -35 0
6 17 25 0
-6 -17 -25 0
18 21 25 0
-18 -21 -25 0
19 25 36 0
-19 -25 -36 0
7 17 26 0
-7 -17 -26 0
18 22 26 0
-18 -22 -26 0
19 26 37 0
-19 -26 -37 0
8 17 27 0
-8 -17 -27 0
18 23 27 0
-18 -23 -27 0
19 27 38 0
-19 -27 -38 0
9 17 28 0
-9 -17 -28 0
18 24 28 0
-18 -24 -28 0
19 28 39 0
-19 -28 -39 0
10 17 29 0
-10 -17 -29 0
18 25 29 0
-18 -25 -29 0
19 29 40 0
-19 -29 -40 0
11 17 30 0
-11 -17 -30 0
18 26 30 0
-18 -26 -30 0
19 30 41 0
-19 -30 -41 0
12 17 31 0
-12 -17 -31 0
18 27 31 0
-18 -27 -31 0
19 31 42 0
-19 -31 -42 0
13 17 32 0
-13 -17 -32 0
18 28 32 0
-18 -28 -32 0
19 32 43 0
-19 -32 -43 0
14 17 33 0
-14 -17 -33 0
18 29 33 0
-18 -29 -33 0
15 17 34 0
-15 -17 -34 0
18 30 34 0
-18 -30 -34 0
1 16 35 0
-1 -16 -35 0
16 17 35 0
-16 -17 -35 0
18 31 35 0
-18 -31 -35 0
2 16 36 0
-2 -16 -36 0
17 36 0
-17 -36 0
18 32 36 0
-18 -32 -36 0
3 16 37 0
-3 -16 -37 0
17 18 37 0
-17 -18 -37 0
18 33 37 0
-18 -33 -37 0
4 16 38 0
-4 -16 -38 0
17 19 38 0
-17 -19 -38 0
18 34 38 0
-18 -34 -38 0
5 16 39 0
-5 -16 -39 0
17 20 39 0
-17 -20 -39 0
18 35 39 0
-18 -35 -39 0
6 16 40 0
-6 -16 -40 0
17 21 40 0
-17 -21 -40 0
18 36 40 0
-18 -36 -40 0
7 16 41 0
-7 -16 -41 0
17 22 41 0
-17 -22 -41 0
18 37 41 0
-18 -37 -41 0
8 16 42 0
-8 -16 -42 0
17 23 42 0
-17 -23 -42 0
18 38 42 0
-18 -38 -42 0
9 16 43 0
-9 -16 -43 0
17 24 43 0
-17 -24 -43 0
18 39 43 0
-18 -39 -43 0
