certificates/rado_a15_c274_N43.drat
18 -40 -41 -42 0
-40 -41 -42 -43 0
20 39 40 -41 0
-20 -41 -42 -43 0
-41 -42 -43 0
d -40 -41 -42 -43 0
-39 40 -42 -43 0
20 39 40 0
d 20 39 40 -41 0
40 -42 -43 0
d -39 40 -42 -43 0
-20 -42 -43 0
d -20 -41 -42 -43 0
39 20 -43 0
20 -43 0
d 39 20 -43 0
-20 -43 0
d -20 -17 -43 0
-43 0
18 -20 0
-18 -20 0
d -24 -18 -20 0
-20 0
17 0
-36 0
10 0
-29 0
3 0
-22 0
18 0
-14 0
-13 0
-21 0
-37 0
-6 0
-7 0
40 0
39 0
2 0
11 0
32 0
33 0
-35 0
-15 0
-30 0
-28 0
9 0
41 0
19 0
4 0
-5 0
-8 0
-38 0
-23 0
31 0
34 0
12 0
-42 0
-27 0
0
